r=1; %radius of tesselated grid
n=6; %how many numbers
snake = array2d(1..n,1..3,[
 %x,y,z, %n
  0,-1,1, %1
  1,-1,0, %2
  1,0,-1, %3
  _,_,_, %4
  _,_,_, %5
  _,_,_  %6
]);

t=2;

tunnels = array3d(1..t,1..2,1..3,[
    0,-1,1,
    1,-1,0,
    
    0,1,-1,
    -1,1,0

]);